49
3 57 60 42 
2 68 95 
2 44 25 
3 59 113 8 
3 107 43 99 
2 101 94 
3 78 50 22 
4 55 109 28 51 
2 74 53 
2 75 27 
2 115 34 
2 5 19 
3 21 46 33 
2 17 38 
2 116 6 
2 16 111 
2 54 112 
2 72 67 
2 92 29 
2 106 14 
2 69 48 
2 84 3 
2 56 104 
2 49 36 
2 23 63 
2 90 93 
2 82 87 
2 70 73 
2 45 26 
2 80 81 
3 12 65 47 
2 96 30 
3 86 118 114 
2 4 18 
3 62 89 88 
2 83 40 
3 31 10 11 
2 97 77 
2 71 24 
2 102 32 
3 9 100 15 
4 91 119 85 61 
3 76 117 1 
4 41 66 120 64 
4 52 7 20 103 
2 105 108 
2 98 79 
2 110 2 
5 37 39 35 58 13 
